Academic license - for non-commercial use only - expires 2022-11-10
Using license file /home/benedond/Apps/gurobi/gurobi950/gurobi.lic
Using gurobi.env file
Set parameter Threads to value 1
Changed value of parameter TimeLimit to 1200.0
   Prev: inf  Min: 0.0  Max: inf  Default: inf
Gurobi Optimizer version 9.1.2 build v9.1.2rc0 (linux64)
Thread count: 2 physical cores, 4 logical processors, using up to 1 threads
Optimize a model with 2109 rows, 1958 columns and 9446 nonzeros
Model fingerprint: 0x5271cb6f
Variable types: 60 continuous, 1898 integer (1898 binary)
Coefficient statistics:
  Matrix range     [2e-01, 4e+02]
  Objective range  [5e-03, 3e-01]
  Bounds range     [1e+00, 1e+00]
  RHS range        [1e+00, 1e+03]
Presolve removed 203 rows and 93 columns
Presolve time: 0.04s
Presolved: 1906 rows, 1865 columns, 8918 nonzeros
Variable types: 59 continuous, 1806 integer (1806 binary)
Found heuristic solution: objective 4.5447112

Root relaxation: objective 2.237384e+00, 1864 iterations, 0.05 seconds

    Nodes    |    Current Node    |     Objective Bounds      |     Work
 Expl Unexpl |  Obj  Depth IntInf | Incumbent    BestBd   Gap | It/Node Time

     0     0    2.23738    0  168    4.54471    2.23738  50.8%     -    0s
H    0     0                       4.4506149    2.23738  49.7%     -    0s
     0     0    2.37083    0  160    4.45061    2.37083  46.7%     -    0s
H    0     0                       3.6864593    2.37083  35.7%     -    0s
     0     0    2.41200    0  177    3.68646    2.41200  34.6%     -    0s
     0     0    2.52293    0  146    3.68646    2.52293  31.6%     -    0s
H    0     0                       3.5251556    2.52293  28.4%     -    0s
H    0     0                       3.4973556    2.52293  27.9%     -    0s
     0     0    2.53362    0  144    3.49736    2.53362  27.6%     -    0s
     0     0    2.57465    0  150    3.49736    2.57465  26.4%     -    0s
     0     0    2.59596    0  170    3.49736    2.59596  25.8%     -    0s
     0     0    2.60788    0  172    3.49736    2.60788  25.4%     -    0s
     0     0    2.60989    0  174    3.49736    2.60989  25.4%     -    0s
     0     0    2.61006    0  150    3.49736    2.61006  25.4%     -    0s
     0     0    2.61008    0  153    3.49736    2.61008  25.4%     -    0s
     0     0    2.63792    0  130    3.49736    2.63792  24.6%     -    0s
H    0     0                       3.3329185    2.63792  20.9%     -    0s
     0     0    2.65269    0  122    3.33292    2.65269  20.4%     -    0s
     0     0    2.65369    0  115    3.33292    2.65369  20.4%     -    0s
     0     0    2.65384    0  125    3.33292    2.65384  20.4%     -    0s
     0     0    2.66909    0  125    3.33292    2.66909  19.9%     -    0s
     0     0    2.67182    0  160    3.33292    2.67182  19.8%     -    0s
     0     0    2.67224    0  133    3.33292    2.67224  19.8%     -    0s
     0     0    2.67224    0  136    3.33292    2.67224  19.8%     -    0s
     0     0    2.68945    0  138    3.33292    2.68945  19.3%     -    0s
     0     0    2.69088    0  149    3.33292    2.69088  19.3%     -    0s
     0     0    2.69106    0  138    3.33292    2.69106  19.3%     -    0s
     0     0    2.70028    0  168    3.33292    2.70028  19.0%     -    0s
     0     0    2.70177    0  155    3.33292    2.70177  18.9%     -    0s
     0     0    2.70182    0  157    3.33292    2.70182  18.9%     -    0s
     0     0    2.71110    0  145    3.33292    2.71110  18.7%     -    0s
     0     0    2.71123    0  144    3.33292    2.71123  18.7%     -    0s
     0     0    2.72258    0  124    3.33292    2.72258  18.3%     -    0s
     0     0    2.72340    0  141    3.33292    2.72340  18.3%     -    0s
     0     0    2.72369    0  135    3.33292    2.72369  18.3%     -    1s
     0     0    2.72854    0  143    3.33292    2.72854  18.1%     -    1s
     0     0    2.73067    0  142    3.33292    2.73067  18.1%     -    1s
     0     0    2.73097    0  141    3.33292    2.73097  18.1%     -    1s
     0     0    2.73139    0  141    3.33292    2.73139  18.0%     -    1s
     0     0    2.73144    0  152    3.33292    2.73144  18.0%     -    1s
     0     0    2.73252    0  154    3.33292    2.73252  18.0%     -    1s
     0     0    2.73274    0  157    3.33292    2.73274  18.0%     -    1s
     0     0    2.73504    0  154    3.33292    2.73504  17.9%     -    1s
     0     0    2.73504    0  147    3.33292    2.73504  17.9%     -    1s
H    0     0                       3.2384963    2.73622  15.5%     -    1s
     0     2    2.73622    0  144    3.23850    2.73622  15.5%     -    1s
H   28    26                       3.1738741    2.76883  12.8%   160    2s
*  382   295              80       3.1291630    2.78122  11.1%  73.9    4s
   436   342    2.86292   42   77    3.12916    2.78449  11.0%  80.5    5s
H  512   373                       3.0964593    2.78466  10.1%  84.7    6s
H  513   354                       3.0947926    2.78466  10.0%  84.6    6s
H  541   354                       3.0933926    2.80362  9.37%  80.2    7s
H  549   340                       3.0599037    2.80658  8.28%  79.0    9s
   551   344    2.80728   12  205    3.05990    2.80728  8.26%  97.8   10s
H  591   340                       3.0508593    2.82484  7.41%   119   13s
   688   332    2.97927   26  118    3.05086    2.82489  7.41%   117   15s
   916   385    2.99449   23   62    3.05086    2.84829  6.64%   134   20s
  1408   474    2.87615   27  159    3.05086    2.86387  6.13%   117   25s
  1815   660    2.95361   21  130    3.05086    2.88446  5.45%   119   30s
  2178   843     cutoff   44         3.05086    2.89176  5.21%   119   35s
  2544   997     cutoff   37         3.05086    2.90049  4.93%   120   40s
  3021  1148    2.91654   13  184    3.05086    2.91192  4.55%   120   45s
  3499  1337    3.00916   43  109    3.05086    2.92217  4.22%   120   50s
  4041  1548    2.94650   20  114    3.05086    2.92818  4.02%   119   55s
* 4269  1628              66       3.0473408    2.93139  3.80%   118   57s
  4504  1711    2.96376   38   76    3.04734    2.93388  3.72%   118   60s
H 4581   946                       3.0069185    2.93476  2.40%   118   60s
H 4954   819                       2.9959926    2.94210  1.80%   117   64s
H 5070   407                       2.9721111    2.94389  0.95%   115   65s
H 5148   165                       2.9604148    2.94800  0.42%   116   66s

Cutting planes:
  Gomory: 3
  Cover: 63
  Implied bound: 13
  Clique: 11
  MIR: 200
  StrongCG: 2
  Flow cover: 295
  Inf proof: 1
  Zero half: 1
  Mod-K: 1
  RLT: 11
  Relax-and-lift: 229

Explored 5337 nodes (616181 simplex iterations) in 67.09 seconds
Thread count was 1 (of 4 available processors)

Solution count 10: 2.96041 2.97211 2.99599 ... 3.12916

Optimal solution found (tolerance 1.00e-04)
Best objective 2.960414834641e+00, best bound 2.960124440148e+00, gap 0.0098%
